sat
(:max-memory        20.22
 :memory            17.79
 :num-allocs        16273252674.00
 :rlimit-count      21689915
 :sls-constraints   8264
 :sls-ddfw-flips    15674227.00
 :sls-ddfw-reinits  56
 :sls-ddfw-restarts 141
 :sls-ddfw-shifts   4705470.00
 :sls-euf-conflict  8264
 :time              16.87
 :total-time        16.87)
